Problem:    
Rows:       20
Columns:    61
Non-zeros:  121
Status:     OPTIMAL
Objective:  obj = 1694233 (MINimum)

   No.   Row name   St   Activity     Lower bound   Upper bound    Marginal
------ ------------ -- ------------- ------------- ------------- -------------
     1 c_source_11  B            453                         455 
     2 c_source_18  NU          1842                        1842          -152 
     3 c_source_6   NU           449                         449        -244.5 
     4 c_source_4   NU           837                         837        -157.5 
     5 c_dest_3     NS           923           923             =         676.5 
     6 c_dest_5     NS           410           410             =           610 
     7 c_dest_8     NS           192           192             =           738 
     8 c_dest_19    NS           743           743             =           617 
     9 c_dest_10    NS          1313          1313             =         564.5 
    10 c_inter_0    NS             0             0             =           291 
    11 c_inter_1    NS             0             0             =         342.5 
    12 c_inter_2    NS             0             0             =         573.5 
    13 c_inter_7    NS             0             0             =           271 
    14 c_inter_9    NS             0             0             =           602 
    15 c_inter_12   NS             0             0             =         432.5 
    16 c_inter_13   NS             0             0             =         443.5 
    17 c_inter_14   NS             0             0             =           520 
    18 c_inter_15   NS             0             0             =           466 
    19 c_inter_16   NS             0             0             =         382.5 
    20 c_inter_17   NS             0             0             =           390 

   No. Column name  St   Activity     Lower bound   Upper bound    Marginal
------ ------------ -- ------------- ------------- ------------- -------------
     1 x_0_4        NL             0             0                         282 
     2 x_4_0        NL             0             0                        25.5 
     3 x_0_12       B              0             0               
     4 x_12_0       NL             0             0                         359 
     5 x_1_7        NL             0             0                         384 
     6 x_7_1        NL             0             0                         213 
     7 x_1_19       B              0             0               
     8 x_19_1       NL             0             0                       461.5 
     9 x_2_13       NL             0             0                         393 
    10 x_13_2       B              0             0               
    11 x_3_19       NL             0             0                         214 
    12 x_19_3       B            923             0               
    13 x_3_5        NL             0             0                         149 
    14 x_5_3        NL             0             0                          27 
    15 x_4_6        B           2530             0               
    16 x_6_4        NL             0             0                         175 
    17 x_4_11       NL             0             0                       316.5 
    18 x_11_4       B            453             0               
    19 x_4_15       B            602             0               
    20 x_15_4       NL             0             0                       606.5 
    21 x_4_18       NL             0             0                         113 
    22 x_18_4       B           1842             0               
    23 x_5_15       NL             0             0                         307 
    24 x_15_5       B            410             0               
    25 x_6_7        NL             0             0                       148.5 
    26 x_7_6        NL             0             0                       108.5 
    27 x_6_17       B           2979             0               
    28 x_17_6       NL             0             0                       171.5 
    29 x_7_13       B              0             0               
    30 x_13_7       NL             0             0                         221 
    31 x_7_18       NL             0             0                         255 
    32 x_18_7       B              0             0               
    33 x_8_15       NL             0             0                         470 
    34 x_15_8       B            192             0               
    35 x_9_10       NL             0             0                          44 
    36 x_10_9       NL             0             0                          18 
    37 x_9_14       NL             0             0                       188.5 
    38 x_14_9       NL             0             0                        45.5 
    39 x_9_13       NL             0             0                       400.5 
    40 x_13_9       B              0             0               
    41 x_9_12       NL             0             0                       363.5 
    42 x_12_9       B              0             0               
    43 x_10_19      NL             0             0                         6.5 
    44 x_19_10      NL             0             0                        55.5 
    45 x_10_17      NL             0             0                       305.5 
    46 x_17_10      B           1313             0               
    47 x_12_14      NL             0             0                           9 
    48 x_14_12      NL             0             0                         257 
    49 x_12_15      NL             0             0                          24 
    50 x_15_12      NL             0             0                       228.5 
    51 x_13_17      NL             0             0                         172 
    52 x_17_13      NL             0             0                         132 
    53 x_14_17      NL             0             0                       329.5 
    54 x_17_14      B           1666             0               
    55 x_14_19      B           1666             0               
    56 x_19_14      NL             0             0                         134 
    57 x_14_16      NL             0             0                       295.5 
    58 x_16_14      B              0             0               
    59 x_15_19      NL             0             0                        76.5 
    60 x_19_15      NL             0             0                         346 
    61 x_16_16      NL             0             0                       424.5 

Karush-Kuhn-Tucker optimality conditions:

KKT.PE: max.abs.err = 0.00e+00 on row 0
        max.rel.err = 0.00e+00 on row 0
        High quality

KKT.PB: max.abs.err = 0.00e+00 on row 0
        max.rel.err = 0.00e+00 on row 0
        High quality

KKT.DE: max.abs.err = 0.00e+00 on column 0
        max.rel.err = 0.00e+00 on column 0
        High quality

KKT.DB: max.abs.err = 0.00e+00 on row 0
        max.rel.err = 0.00e+00 on row 0
        High quality

End of output
